
m = 12;

n = 12;

Amin = 57;

Amax = 72;

B = 2736;

lambda = 20.00;

c = 
[[8,10,4,8,6,8,8,6,5,6,10,6],
[5,6,8,4,4,10,7,3,9,8,5,2],
[2,4,4,10,7,6,9,2,3,2,9,7],
[6,4,2,9,7,8,2,10,4,9,10,6],
[6,6,8,4,2,9,2,9,3,4,8,6],
[7,6,6,6,4,2,3,8,5,10,4,8],
[8,4,7,10,9,5,3,4,7,9,4,7],
[6,4,5,7,5,2,9,8,4,2,3,6],
[3,4,3,4,2,3,10,8,4,4,5,2],
[5,6,3,2,3,3,5,7,6,9,10,7],
[7,8,4,8,8,3,3,7,6,3,9,4],
[4,6,10,6,7,4,5,10,8,4,10,9]];
